
Gurobi 13.0.2 (win64) logging started Thu Jul 23 04:45:31 2026

Set parameter LogFile to value "E:\codes\ExactEBRP\results\gf_cplex_equivalent_gurobi_replica_round28\runs\stage1__high_imbalance_seed3202__c3_replica__300s\external\native_logs\R.1.1_lp.gurobi.log"
Gurobi Optimizer version 13.0.2 build v13.0.2rc1 (win64 - Windows 10.0 (19045.2))

CPU model: 12th Gen Intel(R) Core(TM) i7-12700KF, instruction set [SSE2|AVX|AVX2]
Thread count: 12 physical cores, 20 logical processors, using up to 1 threads

Non-default parameters:
TimeLimit  258.4048149
MIPGap  0
MIPGapAbs  0
LogToConsole  0
Threads  1

Optimize a model with 11895 rows, 3372 columns and 66942 nonzeros (Min)
Model fingerprint: 0x3845736d
Model has 21 linear objective coefficients
Coefficient statistics:
  Matrix range     [1e-02, 2e+04]
  Objective range  [1e-02, 1e+00]
  Bounds range     [7e-01, 1e+03]
  RHS range        [7e-01, 5e+04]

Presolve removed 2033 rows and 91 columns
Presolve time: 0.03s
Presolved: 9862 rows, 3282 columns, 49652 nonzeros

Iteration    Objective       Primal Inf.    Dual Inf.      Time
       0    1.3017148e+00   7.894187e+02   0.000000e+00      0s
Warning: very big Kappa = 5.84845e+16, try parameter NumericFocus

Solved in 3069 iterations and 0.25 seconds (0.61 work units)
Infeasible model

User-callback calls 3297, time in user-callback 0.00 sec
